
  12    4
  10   10   10   10

   0   0   0   0   0   4 2 3 4 8 
  10  10  10  10  10   3 11 7 6 
   1  10  10  10  10   2 10 5 
   1  10  10  10  10   1 5 
   9  10  10  10  10   1 9 
   9  10  10  10  10   1 9 
   4  10  10  10  10   1 9 
   6  10  10  10  10   1 9 
   2  10  10  10  10   1 12
   4  10  10  10  10   1 12
  10  10  10  10  10   1 12
   0   0   0   0   0   0 
